NAME: I4830-n50-k4
COMMENT : (Fake et al, No of trucks: 4, Optimal value: )
TYPE : CVRP
DIMENSION : 50
EDGE_WEIGHT_TYPE : EUC_2D
CAPACITY : 14
NODE_COORD_SECTION
1 522 326
2 390 97
3 232 206
4 332 219
5 118 152
6 835 412
7 575 346
8 817 120
9 295 354
10 838 830
11 56 757
12 1000 344
13 119 516
14 242 282
15 332 161
16 194 229
17 219 872
18 665 739
19 827 573
20 702 22
21 381 704
22 406 869
23 780 765
24 781 133
25 591 556
26 942 615
27 410 527
28 202 682
29 458 409
30 540 206
31 35 671
32 371 977
33 163 28
34 148 500
35 726 835
36 772 562
37 125 209
38 969 612
39 183 917
40 625 388
41 379 482
42 498 246
43 724 393
44 209 332
45 317 771
46 446 964
47 182 789
48 842 917
49 186 818
50 974 937
DEMAND_SECTION
1 0
2 1
3 1
4 1
5 1
6 1
7 1
8 1
9 1
10 1
11 1
12 1
13 1
14 1
15 1
16 1
17 1
18 1
19 1
20 1
21 1
22 1
23 1
24 1
25 1
26 1
27 1
28 1
29 1
30 1
31 1
32 1
33 1
34 1
35 1
36 1
37 1
38 1
39 1
40 1
41 1
42 1
43 1
44 1
45 1
46 1
47 1
48 1
49 1
50 1
DEPOT_SECTION
 1
 -1
 EOF 